Version identifier: 20.1.0.0 | 2020-11-10 | 9bedb6d68
CPXPARAM_Threads                                 1
CPXPARAM_TimeLimit                               100
Generic callback                                 0xfe
Tried aggregator 1 time.
MIP Presolve eliminated 4 rows and 30 columns.
MIP Presolve modified 28 coefficients.
Reduced MIP has 1298 rows, 35725 columns, and 105853 nonzeros.
Reduced MIP has 35724 binaries, 0 generals, 0 SOSs, and 0 indicators.
Presolve time = 0.03 sec. (31.79 ticks)
Tried aggregator 1 time.
Reduced MIP has 1298 rows, 35725 columns, and 105853 nonzeros.
Reduced MIP has 35724 binaries, 0 generals, 0 SOSs, and 0 indicators.
Presolve time = 0.03 sec. (30.97 ticks)
Probing time = 0.02 sec. (9.71 ticks)
Clique table members: 4125.
MIP emphasis: balance optimality and feasibility.
MIP search method: dynamic search.
Parallel mode: none, using 1 thread.
Root relaxation solution time = 0.01 sec. (16.16 ticks)

        Nodes                                         Cuts/
   Node  Left     Objective  IInf  Best Integer    Best Bound    ItCnt     Gap

      0     0    28811.7037    39                      0.0000        6         
*     0+    0                        34849.8700    28811.7037            17.33%
*     0+    0                        34634.2100    28811.7037            16.81%
      0     2    28880.2712    72    34634.2100    28888.6229        6   16.59%
Elapsed time = 7.30 sec. (2473.76 ticks, tree = 0.01 MB, solutions = 2)
      6     8    31671.3400    33    34634.2100    29043.0811       68   16.14%
     10    12    32547.4500     0    34634.2100    29043.0811      120   16.14%
     12    12    32550.7614    21    34634.2100    29043.0811      120   16.14%
     20    19    32570.6300    17    34634.2100    29043.0811      129   16.14%
     30    25    32570.6300    22    34634.2100    29043.0811      144   16.14%
     38    29    32570.6300    20    34634.2100    29043.0811      161   16.14%
     46    33    32570.6300    22    34634.2100    29043.0811      178   16.14%
     50    35    33007.1199    33    34634.2100    29043.0811      197   16.14%
     60    41    29458.4750    36    34634.2100    29199.2031      244   15.69%
     81    61    34092.4970    36    34634.2100    29199.2031      702   15.69%
Elapsed time = 15.52 sec. (7728.94 ticks, tree = 1.38 MB, solutions = 2)
     83    62    34092.4970    42    34634.2100    29199.2031      734   15.69%
     88    67    32202.3400    10    34634.2100    29199.2031      873   15.69%
     89    67    34092.4970    34    34634.2100    29199.2031      891   15.69%
     91    69    32225.6733    97    34634.2100    29199.2031      895   15.69%
     92    70    32226.6128    88    34634.2100    29199.2031      925   15.69%
    102    79    34092.4970    38    34634.2100    29199.2031      964   15.69%
    103    79    34092.4970    40    34634.2100    29199.2031      965   15.69%
    120    89    30242.0520    29    34634.2100    29303.6000     1028   15.39%
    164   133    30879.0600    14    34634.2100    29303.6000     1235   15.39%
    198   167    34112.9681   149    34634.2100    29303.6000     1398   15.39%
Elapsed time = 57.50 sec. (39422.31 ticks, tree = 4.00 MB, solutions = 2)
    200   169    34114.8732   123    34634.2100    29303.6000     1425   15.39%
    230   194    29392.1000    45    34634.2100    29303.6000     1785   15.39%
    250   214    29712.1000    50    34634.2100    29303.6000     2479   15.39%
    292   256    30163.1297    16    34634.2100    29303.6000     2957   15.39%
Advanced basis not built.
    300   264    32927.8700     0    34634.2100    29303.6000     2988   15.39%
    301   264    32996.9379    63    34634.2100    29303.6000     2988   15.39%
    340   303    33070.3225    34    34634.2100    29303.6000     3360   15.39%
    353   316    33888.2326    71    34634.2100    29303.6000     3751   15.39%
    367   324    34573.4757    25    34634.2100    29303.6000     3838   15.39%
    387   342    31112.1800    10    34634.2100    29303.6000     4018   15.39%
Elapsed time = 73.27 sec. (57346.89 ticks, tree = 8.41 MB, solutions = 2)
    397   352    31927.9500     6    34634.2100    29303.6000     4084   15.39%
    400   355    31927.9500     0    34634.2100    29303.6000     4090   15.39%
    420   375    32442.5400     6    34634.2100    29303.6000     4126   15.39%
    421   375    33171.4200    18    34634.2100    29303.6000     4127   15.39%
    429   378    33171.4200     6    34634.2100    29303.6000     4137   15.39%
    431   380    33285.3820    46    34634.2100    29303.6000     4139   15.39%
    440   386    34311.0400     6    34634.2100    29303.6000     4213   15.39%
    446   392    33479.9200    21    34634.2100    29303.6000     4308   15.39%
    454   400    33894.4200     6    34634.2100    29303.6000     4958   15.39%
    457   401        cutoff          34634.2100    29303.6000     4992   15.39%
Elapsed time = 88.43 sec. (73507.74 ticks, tree = 9.95 MB, solutions = 2)
    462   404    33894.4200    12    34634.2100    29303.6000     5001   15.39%
    468   406    33894.4200     6    34634.2100    29303.6000     5015   15.39%
    472   408    33954.5235    15    34634.2100    29303.6000     5020   15.39%
    477   407        cutoff          34634.2100    29303.6000     5041   15.39%
    490   418    29392.1000    53    34634.2100    29303.6000     5273   15.39%
Starting limited solution polishing.
    500   428    29392.1000    57    34634.2100    29303.6000     5317   15.39%
    520   448    29712.1000    62    34634.2100    29303.6000     5443   15.39%
    548   476    30439.3700    13    34634.2100    29303.6000     5756   15.39%
    560   488    32927.8700     0    34634.2100    29303.6000     5793   15.39%
Advanced basis not built.

User cuts applied:  462

Root node processing (before b&c):
  Real time             =    7.32 sec. (2509.12 ticks)
Sequential b&c:
  Real time             =   92.57 sec. (85273.38 ticks)
                          ------------
Total (root+branch&cut) =   99.89 sec. (87782.50 ticks)
SOLUTION ADMISSIBLE TROUVEE 34849.87 34849.87 480.0 661.0
SOLUTION ADMISSIBLE TROUVEE 34634.21 34634.21 482.0 661.0
